0676-0001
0677-0006
0745-0004
0686-0006
0676-0000
0698-0000
0681-0002
0749-0002
0745-0001
0725-0001
0719-0001
0726-0002
0716-0005
0744-0000
0741-0006
0748-0002
0737-0000
0750-0001
0668-0007
0671-0002
0700-0004
0669-0006
0669-0002
0676-0004
0749-0000
0668-0005
0696-0002
0684-0000
0708-0002
0697-0005
0680-0001
0705-0002
0713-0001
0712-0003
0727-0004
0675-0000
0736-0004
0741-0001
0670-0003
